NAME : Gen-n41
COMMENT : Synthetic instance with 40 customers
TYPE : CVRP
DIMENSION : 41
EDGE_WEIGHT_TYPE : EUC_2D
CAPACITY : 200
NODE_COORD_SECTION
 1 50 50
 2 58 74
 3 67 4
 4 31 36
 5 85 81
 6 85 26
 7 16 97
 8 44 35
 9 95 56
 10 3 67
 11 94 16
 12 7 82
 13 25 79
 14 90 58
 15 6 22
 16 77 40
 17 14 32
 18 41 18
 19 100 65
 20 87 66
 21 12 52
 22 6 40
 23 93 96
 24 42 29
 25 94 19
 26 39 20
 27 66 39
 28 89 37
 29 59 100
 30 20 75
 31 26 62
 32 55 66
 33 8 21
 34 74 26
 35 77 74
 36 1 11
 37 59 78
 38 38 14
 39 24 30
 40 59 58
 41 12 60
DEMAND_SECTION
 1 0
 2 25
 3 15
 4 24
 5 19
 6 14
 7 22
 8 23
 9 12
 10 7
 11 6
 12 9
 13 24
 14 17
 15 10
 16 19
 17 8
 18 18
 19 11
 20 23
 21 5
 22 18
 23 20
 24 21
 25 12
 26 12
 27 19
 28 11
 29 10
 30 10
 31 14
 32 13
 33 7
 34 10
 35 15
 36 10
 37 12
 38 6
 39 12
 40 10
 41 6
DEPOT_SECTION
 1
 -1
EOF