NAME : Gen-n61
COMMENT : Synthetic instance with 60 customers
TYPE : CVRP
DIMENSION : 61
EDGE_WEIGHT_TYPE : EUC_2D
CAPACITY : 200
NODE_COORD_SECTION
 1 50 50
 2 39 36
 3 73 19
 4 33 29
 5 61 59
 6 42 5
 7 11 85
 8 23 19
 9 49 5
 10 30 81
 11 1 52
 12 92 21
 13 16 39
 14 79 80
 15 86 19
 16 65 76
 17 71 75
 18 6 76
 19 72 13
 20 38 19
 21 2 72
 22 28 37
 23 100 30
 24 69 35
 25 8 28
 26 16 90
 27 32 26
 28 93 25
 29 74 82
 30 15 64
 31 40 63
 32 46 48
 33 11 67
 34 82 12
 35 4 3
 36 71 92
 37 11 10
 38 22 49
 39 88 40
 40 71 71
 41 49 94
 42 99 49
 43 69 88
 44 88 21
 45 43 91
 46 42 58
 47 9 65
 48 89 75
 49 49 3
 50 56 32
 51 67 17
 52 14 28
 53 53 71
 54 11 70
 55 55 5
 56 65 61
 57 2 54
 58 13 4
 59 74 81
 60 98 93
 61 87 26
DEMAND_SECTION
 1 0
 2 7
 3 10
 4 16
 5 18
 6 20
 7 9
 8 12
 9 23
 10 5
 11 20
 12 15
 13 25
 14 12
 15 5
 16 15
 17 13
 18 20
 19 15
 20 7
 21 12
 22 14
 23 15
 24 12
 25 22
 26 22
 27 25
 28 25
 29 10
 30 21
 31 16
 32 13
 33 6
 34 10
 35 17
 36 20
 37 11
 38 21
 39 15
 40 11
 41 21
 42 8
 43 8
 44 9
 45 12
 46 7
 47 5
 48 22
 49 19
 50 8
 51 25
 52 12
 53 22
 54 22
 55 12
 56 18
 57 11
 58 23
 59 25
 60 18
 61 22
DEPOT_SECTION
 1
 -1
EOF