NAME : Gen-n21
COMMENT : Synthetic instance with 20 customers
TYPE : CVRP
DIMENSION : 21
EDGE_WEIGHT_TYPE : EUC_2D
CAPACITY : 100
NODE_COORD_SECTION
 1 50 50
 2 92 87
 3 100 98
 4 19 33
 5 86 81
 6 12 41
 7 73 21
 8 3 52
 9 52 9
 10 13 16
 11 40 60
 12 74 57
 13 52 26
 14 25 40
 15 80 87
 16 42 42
 17 54 11
 18 80 66
 19 62 51
 20 10 26
 21 73 31
DEMAND_SECTION
 1 0
 2 6
 3 11
 4 8
 5 7
 6 11
 7 13
 8 14
 9 14
 10 13
 11 10
 12 24
 13 8
 14 5
 15 13
 16 12
 17 12
 18 23
 19 12
 20 6
 21 5
DEPOT_SECTION
 1
 -1
EOF