NAME : Gen-n31
COMMENT : Synthetic instance with 30 customers
TYPE : CVRP
DIMENSION : 31
EDGE_WEIGHT_TYPE : EUC_2D
CAPACITY : 100
NODE_COORD_SECTION
 1 50 50
 2 69 37
 3 78 3
 4 79 83
 5 26 32
 6 6 50
 7 48 82
 8 17 10
 9 59 0
 10 66 31
 11 3 9
 12 20 76
 13 67 51
 14 83 44
 15 68 8
 16 51 3
 17 31 72
 18 86 35
 19 97 54
 20 72 12
 21 86 35
 22 81 71
 23 14 78
 24 63 39
 25 16 39
 26 39 32
 27 64 10
 28 17 31
 29 89 40
 30 15 98
 31 3 52
DEMAND_SECTION
 1 0
 2 21
 3 14
 4 10
 5 21
 6 25
 7 10
 8 20
 9 25
 10 15
 11 21
 12 19
 13 15
 14 21
 15 15
 16 7
 17 5
 18 25
 19 8
 20 20
 21 20
 22 13
 23 20
 24 13
 25 23
 26 13
 27 10
 28 10
 29 10
 30 21
 31 14
DEPOT_SECTION
 1
 -1
EOF