NAME : Gen-n81
COMMENT : Synthetic instance with 80 customers
TYPE : CVRP
DIMENSION : 81
EDGE_WEIGHT_TYPE : EUC_2D
CAPACITY : 200
NODE_COORD_SECTION
 1 50 50
 2 34 50
 3 69 90
 4 53 47
 5 46 68
 6 51 47
 7 3 70
 8 97 49
 9 28 79
 10 6 49
 11 30 21
 12 67 72
 13 1 18
 14 57 79
 15 16 20
 16 29 47
 17 45 75
 18 22 80
 19 26 34
 20 33 10
 21 40 12
 22 84 2
 23 95 0
 24 19 67
 25 37 38
 26 47 79
 27 74 3
 28 40 63
 29 94 13
 30 31 81
 31 63 69
 32 47 65
 33 94 6
 34 57 25
 35 35 40
 36 61 99
 37 85 44
 38 88 86
 39 1 64
 40 5 49
 41 27 15
 42 84 13
 43 1 21
 44 4 77
 45 34 45
 46 61 89
 47 0 70
 48 10 43
 49 99 58
 50 16 61
 51 53 16
 52 20 27
 53 55 48
 54 82 18
 55 97 12
 56 9 19
 57 50 97
 58 33 64
 59 43 38
 60 68 82
 61 70 59
 62 24 74
 63 21 72
 64 70 43
 65 98 55
 66 71 35
 67 15 72
 68 3 37
 69 46 49
 70 52 1
 71 31 91
 72 9 44
 73 26 71
 74 35 33
 75 41 79
 76 37 44
 77 76 21
 78 15 27
 79 91 19
 80 23 22
 81 82 14
DEMAND_SECTION
 1 0
 2 19
 3 13
 4 5
 5 20
 6 10
 7 8
 8 8
 9 11
 10 24
 11 25
 12 6
 13 11
 14 13
 15 15
 16 15
 17 7
 18 15
 19 10
 20 12
 21 15
 22 17
 23 18
 24 25
 25 17
 26 22
 27 7
 28 19
 29 20
 30 18
 31 24
 32 23
 33 5
 34 25
 35 7
 36 5
 37 15
 38 19
 39 11
 40 25
 41 9
 42 24
 43 14
 44 14
 45 13
 46 15
 47 18
 48 25
 49 23
 50 9
 51 22
 52 19
 53 12
 54 22
 55 10
 56 8
 57 16
 58 5
 59 22
 60 14
 61 12
 62 17
 63 23
 64 19
 65 13
 66 12
 67 21
 68 7
 69 17
 70 7
 71 16
 72 20
 73 12
 74 10
 75 15
 76 14
 77 13
 78 8
 79 20
 80 20
 81 10
DEPOT_SECTION
 1
 -1
EOF